.Version 10.5.1.4 of ABINIT, released May 2025.

 ABINIT is a project of the Universite Catholique de Louvain,
 Corning Inc. and other collaborators, see ~abinit/doc/developers/contributors.txt .
 acknowledgments of the ABINIT effort.

.Starting date : Wed 25 Jun 2025.
- ( at 17h36 )

 === Build Information ===
  Version       : 10.5.1.4
  Build target  : x86_64_linux_gnu11.4
  Build date    : 20250623

 === Optimizations ===
  Debug level        : basic
  Optimization level : standard
  Architecture       : unknown_unknown

 === Multicore ===
  Parallel build :
  Parallel I/O   :
  openMP support :
  GPU support    : @with_gpu@

 === Connectors / Fallbacks ===
  LINALG flavor  : mkl
  FFT flavor     : dfti
  HDF5           : yes
  NetCDF         : yes
  NetCDF Fortran : yes
  Wannier90      : no

 === Experimental features ===
  Exports             : @enable_exports@
  GW double-precision :

 Default optimizations:
   -O2 -march=native

 Optimizations for 43_ptgroups:
   -O0

 CPP options activated during the build:

                    CC_GNU                   CXX_GNU                    FC_GNU

                 HAVE_DFTI HAVE_FC_ALLOCATABLE_DT...             HAVE_FC_ASYNC

         HAVE_FC_BACKTRACE  HAVE_FC_COMMAND_ARGUMENT      HAVE_FC_COMMAND_LINE

        HAVE_FC_CONTIGUOUS           HAVE_FC_CPUTIME              HAVE_FC_EXIT

             HAVE_FC_FLUSH             HAVE_FC_GAMMA            HAVE_FC_GETENV

   HAVE_FC_IEEE_ARITHMETIC   HAVE_FC_IEEE_EXCEPTIONS          HAVE_FC_INT_QUAD

             HAVE_FC_IOMSG     HAVE_FC_ISO_C_BINDING  HAVE_FC_ISO_FORTRAN_2008

        HAVE_FC_LONG_LINES        HAVE_FC_MOVE_ALLOC  HAVE_FC_ON_THE_FLY_SHAPE

           HAVE_FC_PRIVATE         HAVE_FC_PROTECTED           HAVE_FC_SHIFTLR

         HAVE_FC_STREAM_IO            HAVE_FC_SYSTEM          HAVE_FORTRAN2003

                 HAVE_HDF5             HAVE_HDF5_MPI        HAVE_LIBPAW_ABINIT

        HAVE_LINALG_GEMM3M         HAVE_LINALG_GEMMT  HAVE_LINALG_MKL_IMATCOPY

   HAVE_LINALG_MKL_OMATADD  HAVE_LINALG_MKL_OMATCOPY   HAVE_LINALG_MKL_THREADS

         HAVE_MPI2_INPLACE HAVE_MPI_ALLOCATE_SHAR...       HAVE_MPI_IALLGATHER

       HAVE_MPI_IALLREDUCE        HAVE_MPI_IALLTOALL       HAVE_MPI_IALLTOALLV

           HAVE_MPI_IBCAST         HAVE_MPI_IGATHERV        HAVE_MPI_INTEGER16

               HAVE_MPI_IO HAVE_MPI_TYPE_CREATE_S...               HAVE_NETCDF

       HAVE_NETCDF_FORTRAN   HAVE_NETCDF_FORTRAN_MPI           HAVE_NETCDF_MPI

             HAVE_OS_LINUX         HAVE_TIMER_ABINIT

- input  file    -> dfpt.abi
- output file    -> dfpt.abo
- root for input  files -> dfpti
- root for output files -> dfpto

 abinit : after writing the name of files
-instrng: 78 lines of input have been read from file dfpt.abi

 For atom type 1, psp file is C.psp8
  read the values zionpsp=  4.0 , pspcod=   8 , lmax=   1

 inpspheads: deduce mpsang = 2, n1xccc = 2501.

 invars1m : enter jdtset= 1
  xred   is defined in input file
 ingeo: takes atomic coordinates from input array xred

--- !COMMENT
src_file: m_symfind.F90
src_line: 758
message: |
    The tolerance on symmetries =   1.000E-05 is bigger than 1.0e-8.
    In order to avoid spurious effects, the atomic coordinates have been
    symmetrized before storing them in the dataset internal variable.
    So, do not be surprised by the fact that your input variables (xcart, xred, ...)
    do not correspond exactly to the ones echoed by ABINIT, the latter being used to do the calculations.
    This is not a problem per se.
    Still, in order to avoid this symmetrization (e.g. for specific debugging/development), decrease tolsym to 1.0e-8 or lower,
    or (much preferred) use input primitive vectors that are accurate to better than 1.0e-8.
    This message will only be printed once, even if there are other datasets where tolsym is bigger than 1.0e-8.
...

 symlatt: the Bravais lattice is cF (face-centered cubic)
 symspgr: spgroup= 227  Fd -3 m   (=Oh^7)
 symspgr: optical characteristics = isotropic
       Homogeneous q point set in the B.Z.
 Grid q points  :        8
  1)   0.00000000E+00  0.00000000E+00  0.00000000E+00
  2)   5.00000000E-01  0.00000000E+00  0.00000000E+00
  3)   0.00000000E+00  5.00000000E-01  0.00000000E+00
  4)   5.00000000E-01  5.00000000E-01  0.00000000E+00
  5)   0.00000000E+00  0.00000000E+00  5.00000000E-01
  6)   5.00000000E-01  0.00000000E+00  5.00000000E-01
  7)   0.00000000E+00  5.00000000E-01  5.00000000E-01
  8)   5.00000000E-01  5.00000000E-01  5.00000000E-01
 symkpt : the number of k-points, thanks to the symmetries,
 is reduced to     3 .

[...]

 symlatt: the Bravais lattice is cF (face-centered cubic)
 symspgr: spgroup= 227  Fd -3 m   (=Oh^7)
 symspgr: optical characteristics = isotropic
       Homogeneous q point set in the B.Z.
 Grid q points  :        8
  1)   0.00000000E+00  0.00000000E+00  0.00000000E+00
  2)   5.00000000E-01  0.00000000E+00  0.00000000E+00
  3)   0.00000000E+00  5.00000000E-01  0.00000000E+00
  4)   5.00000000E-01  5.00000000E-01  0.00000000E+00
  5)   0.00000000E+00  0.00000000E+00  5.00000000E-01
  6)   5.00000000E-01  0.00000000E+00  5.00000000E-01
  7)   0.00000000E+00  5.00000000E-01  5.00000000E-01
  8)   5.00000000E-01  5.00000000E-01  5.00000000E-01
 symkpt : the number of k-points, thanks to the symmetries,
 is reduced to     3 .

 invars1m : enter jdtset= 3
  xred   is defined in input file
 ingeo: takes atomic coordinates from input array xred

 symlatt: the Bravais lattice is cF (face-centered cubic)
 symspgr: spgroup= 227  Fd -3 m   (=Oh^7)
 symspgr: optical characteristics = isotropic
       Homogeneous q point set in the B.Z.
 Grid q points  :        8
  1)   0.00000000E+00  0.00000000E+00  0.00000000E+00
  2)   5.00000000E-01  0.00000000E+00  0.00000000E+00
  3)   0.00000000E+00  5.00000000E-01  0.00000000E+00
  4)   5.00000000E-01  5.00000000E-01  0.00000000E+00
  5)   0.00000000E+00  0.00000000E+00  5.00000000E-01
  6)   5.00000000E-01  0.00000000E+00  5.00000000E-01
  7)   0.00000000E+00  5.00000000E-01  5.00000000E-01
  8)   5.00000000E-01  5.00000000E-01  5.00000000E-01
 symkpt : the number of k-points, thanks to the symmetries,
 is reduced to     3 .
 For input ecut=  4.500000E+01 best grid ngfft=      30      30      30
       max ecut=  4.883263E+01

 ==== FFT mesh ====
  FFT mesh divisions ........................    30   30   30
  Augmented FFT divisions ...................    31   31   30
  FFT algorithm .............................   512
  FFT cache size ............................    16
 getmpw: optimal value of mpw= 1124
 getmpw: optimal value of mpw= 1124
 For input ecut=  4.500000E+01 best grid ngfft=      30      30      30
       max ecut=  4.883263E+01

 ==== FFT mesh ====
  FFT mesh divisions ........................    30   30   30
  Augmented FFT divisions ...................    31   31   30
  FFT algorithm .............................   512
  FFT cache size ............................    16
 getmpw: optimal value of mpw= 1124
 getmpw: optimal value of mpw= 1124
 For input ecut=  4.500000E+01 best grid ngfft=      30      30      30
       max ecut=  4.883263E+01

 ==== FFT mesh ====
  FFT mesh divisions ........................    30   30   30
  Augmented FFT divisions ...................    31   31   30
  FFT algorithm .............................   512
  FFT cache size ............................    16
 getmpw: optimal value of mpw= 1124
 getmpw: optimal value of mpw= 1124
 DATASET    1 : space group Fd -3 m (#227); Bravais cF (face-center cubic)

 getdim_nloc: deduce lmnmax  =   8, lnmax  =   4,
                      lmnmaxso=   8, lnmaxso=   4.
     intxc =       0      iscf =       7    lmnmax =       4     lnmax =       4
     mgfft =      30  mpssoang =       2    mqgrid =    3001     natom =       2
  nloc_mem =       1    nspden =       1   nspinor =       1    nsppol =       1
      nsym =      48    n1xccc =    2501    ntypat =       1    occopt =       1
   xclevel =       2
-    mband =           8        mffmem =           1         mkmem =         128
-   mkqmem =         128        mk1mem =         128           mpw =        1124
      nfft =       27000          nkpt =         512
  Rough estimation (10% accuracy) of disk space for files :

 The job will continue.
 DATASET    2 : space group Fd -3 m (#227); Bravais cF (face-center cubic)

[...]

 The job will continue.
 DATASET    3 : space group Fd -3 m (#227); Bravais cF (face-center cubic)

 getdim_nloc: deduce lmnmax  =   8, lnmax  =   4,
                      lmnmaxso=   8, lnmaxso=   4.
     intxc =       0      iscf =       7    lmnmax =       4     lnmax =       4
     mgfft =      30  mpssoang =       2    mqgrid =    3001     natom =       2
  nloc_mem =       1    nspden =       1   nspinor =       1    nsppol =       1
      nsym =      48    n1xccc =    2501    ntypat =       1    occopt =       1
   xclevel =       2
-    mband =           8        mffmem =           1         mkmem =         128
-   mkqmem =         128        mk1mem =         128           mpw =        1124
      nfft =       27000          nkpt =         512
  Rough estimation (10% accuracy) of disk space for files :

 The job will continue.
------------- Echo of variables that govern the present computation ------------
-
- outvars: echo of selected default values
-   iomode0 =  0 , fftalg0 =512 , wfoptalg0 =  0
-
- outvars: echo of global parameters not present in the input file
-  max_nthreads =    0
-
 -outvars: echo values of preprocessed input variables --------

 These variables are accessible in NetCDF format (dfpto_OUT.nc)

-          iomode           3
            acell      6.7510000000E+00  6.7510000000E+00  6.7510000000E+00 Bohr
              amu      1.20110000E+01
           diemac      1.20000000E+01
             ecut      4.50000000E+01 Hartree
-          fftalg         512
           istwfk        1    0    0    0    1    0    0    0    0    0
                         0    0    0    0    0    0    0    0    0    0
                         0    0    0    0    0    0    0    0    0    0
                         0    0    1    0    0    0    1    0    0    0
                         0    0    0    0    0    0    0    0    0    0
                       outvar_i_n : Printing only first  50 k-points.
              ixc          11
           jdtset        1    2    3
              kpt      0.00000000E+00  0.00000000E+00  0.00000000E+00
                       1.25000000E-01  0.00000000E+00  0.00000000E+00
                       2.50000000E-01  0.00000000E+00  0.00000000E+00
                       3.75000000E-01  0.00000000E+00  0.00000000E+00
                       5.00000000E-01  0.00000000E+00  0.00000000E+00
                      -3.75000000E-01  0.00000000E+00  0.00000000E+00
                      -2.50000000E-01  0.00000000E+00  0.00000000E+00
                      -1.25000000E-01  0.00000000E+00  0.00000000E+00
                       0.00000000E+00  1.25000000E-01  0.00000000E+00
                       1.25000000E-01  1.25000000E-01  0.00000000E+00
                       2.50000000E-01  1.25000000E-01  0.00000000E+00
                       3.75000000E-01  1.25000000E-01  0.00000000E+00
[...]
  1.56E-24 2.12E-24 4.05E-24 3.13E-24 1.10E-23 2.58E-23 1.36E-23 1.20E-20
   0.0000 -0.3750  0.0000    1  5.81936E-19 kpt; spin; max resid(k); each band:
  1.98E-24 3.32E-24 3.40E-24 6.14E-24 1.60E-23 9.66E-24 2.06E-23 5.82E-19
   0.1250 -0.3750  0.0000    1  1.04030E-17 kpt; spin; max resid(k); each band:
  1.69E-24 4.97E-24 2.97E-24 3.72E-24 2.20E-23 2.64E-23 2.27E-23 1.04E-17
   0.2500 -0.3750  0.0000    1  3.62151E-21 kpt; spin; max resid(k); each band:
  1.57E-24 3.08E-24 5.61E-24 3.00E-24 1.69E-23 2.79E-23 4.87E-23 3.62E-21
   0.3750 -0.3750  0.0000    1  8.28605E-22 kpt; spin; max resid(k); each band:
  2.40E-24 2.21E-24 3.56E-24 1.96E-24 1.10E-23 3.03E-23 6.36E-23 8.29E-22
   0.5000 -0.3750  0.0000    1  7.23162E-21 kpt; spin; max resid(k); each band:
  1.56E-24 3.28E-24 2.56E-24 1.62E-24 7.74E-24 1.05E-23 7.23E-21 5.36E-21
  -0.3750 -0.3750  0.0000    1  8.58492E-21 kpt; spin; max resid(k); each band:
  2.78E-24 7.53E-24 4.36E-24 3.84E-24 5.61E-24 1.23E-23 8.58E-21 1.50E-22
  -0.2500 -0.3750  0.0000    1  6.94792E-23 kpt; spin; max resid(k); each band:
  2.64E-24 6.16E-24 2.44E-24 2.20E-24 8.14E-24 2.43E-23 6.95E-23 9.52E-24
  -0.1250 -0.3750  0.0000    1  2.32639E-22 kpt; spin; max resid(k); each band:
  2.04E-24 2.92E-24 3.19E-24 6.31E-24 9.06E-24 2.09E-23 2.69E-23 2.33E-22
   0.0000 -0.2500  0.0000    1  6.76970E-19 kpt; spin; max resid(k); each band:
  1.63E-24 4.49E-24 5.02E-24 9.72E-24 4.31E-24 1.68E-23 4.77E-23 6.77E-19
   0.1250 -0.2500  0.0000    1  1.05768E-14 kpt; spin; max resid(k); each band:
  1.56E-24 4.41E-24 4.48E-24 3.78E-24 9.30E-24 2.85E-23 7.45E-23 1.06E-14
 outresid : prtvol=0 or 1, do not print more k-points.

 Thirteen components of 2nd-order total energy (hartree) are
 1,2,3: 0th-order hamiltonian combined with 1st-order wavefunctions
     kin0=   3.73727203E+02 eigvalue=  -9.79736191E+00  local=  -1.35104852E+02
 4,5,6: 1st-order hamiltonian combined with 1st and 0th-order wfs
 loc psp =  -1.82091546E+02  Hartree=   4.68503314E+01     xc=  -1.07933479E+01
 note that "loc psp" includes a xc core correction that could be resolved
 7,8,9: eventually, occupation + non-local contributions
    edocc=   1.27151296E+01     enl0=   1.06324816E+02   enl1=  -5.85752290E+02
 1-9 gives the relaxation energy (to be shifted if some occ is /=2.0)
   erelax=  -3.83921918E+02
 10,11,12 Non-relaxation  contributions : frozen-wavefunctions and Ewald
 fr.local=   5.03481202E+01 fr.nonlo=   3.02374634E+02  Ewald=   4.48457263E+01
 dfpt_prtene : non-relax=    3.975685E+02
 13,14 Frozen wf xc core corrections (1) and (2)
 frxc 1  =  -1.12048086E+01  frxc 2 =   9.40506583E+00
 Resulting in :
 2DEtotal=    0.1184681914E+02 Ha. Also 2DEtotal=    0.322368343178E+03 eV
    (2DErelax=   -3.8392191822E+02 Ha. 2DEnonrelax=    3.9576873737E+02 Ha)
    (  non-var. 2DEtotal :    1.1846819141E+01 Ha)

 ---- first-order wavefunction calculations are completed ----

 ==> Compute Derivative Database <==

 phonon wavelength (reduced coordinates) , norm, and energies in hartree
  0.50 0.50 0.00 1.00
  3.565957334E-03  3.565957334E-03  4.820184454E-03  4.820184454E-03  5.432600577E-03
  5.432600577E-03

 Zero Point Motion energy (sum of freqs/2)=  1.381874236E-02

== END DATASET(S) ==============================================================

 -outvars: echo values of variables after computation  --------

 These variables are accessible in NetCDF format (dfpto_OUT.nc)

-          iomode           3
            acell      6.7510000000E+00  6.7510000000E+00  6.7510000000E+00 Bohr
              amu      1.20110000E+01
           diemac      1.20000000E+01
             ecut      4.50000000E+01 Hartree
           etotal1     8.6213344446E+00
           etotal2     8.9343279796E+00
           etotal3     1.1846819141E+01
            fcart1     0.0000000000E+00  0.0000000000E+00  0.0000000000E+00
                       0.0000000000E+00  0.0000000000E+00  0.0000000000E+00
            fcart2     0.0000000000E+00  0.0000000000E+00  0.0000000000E+00
                       0.0000000000E+00  0.0000000000E+00  0.0000000000E+00
            fcart3     0.0000000000E+00  0.0000000000E+00  0.0000000000E+00
                       0.0000000000E+00  0.0000000000E+00  0.0000000000E+00
-          fftalg         512
           istwfk        1    0    0    0    1    0    0    0    0    0
                         0    0    0    0    0    0    0    0    0    0
                         0    0    0    0    0    0    0    0    0    0
                         0    0    1    0    0    0    1    0    0    0
                         0    0    0    0    0    0    0    0    0    0
                       outvar_i_n : Printing only first  50 k-points.
              ixc          11
           jdtset        1    2    3
              kpt      0.00000000E+00  0.00000000E+00  0.00000000E+00
                       1.25000000E-01  0.00000000E+00  0.00000000E+00
                       2.50000000E-01  0.00000000E+00  0.00000000E+00
                       3.75000000E-01  0.00000000E+00  0.00000000E+00
                       5.00000000E-01  0.00000000E+00  0.00000000E+00
                      -3.75000000E-01  0.00000000E+00  0.00000000E+00
                      -2.50000000E-01  0.00000000E+00  0.00000000E+00
                      -1.25000000E-01  0.00000000E+00  0.00000000E+00
                       0.00000000E+00  1.25000000E-01  0.00000000E+00
                       1.25000000E-01  1.25000000E-01  0.00000000E+00
                       2.50000000E-01  1.25000000E-01  0.00000000E+00
                       3.75000000E-01  1.25000000E-01  0.00000000E+00
                       5.00000000E-01  1.25000000E-01  0.00000000E+00
                      -3.75000000E-01  1.25000000E-01  0.00000000E+00
                      -2.50000000E-01  1.25000000E-01  0.00000000E+00
                      -1.25000000E-01  1.25000000E-01  0.00000000E+00
                       0.00000000E+00  2.50000000E-01  0.00000000E+00
                       1.25000000E-01  2.50000000E-01  0.00000000E+00
                       2.50000000E-01  2.50000000E-01  0.00000000E+00
                       3.75000000E-01  2.50000000E-01  0.00000000E+00
                       5.00000000E-01  2.50000000E-01  0.00000000E+00
                      -3.75000000E-01  2.50000000E-01  0.00000000E+00
                      -2.50000000E-01  2.50000000E-01  0.00000000E+00
                      -1.25000000E-01  2.50000000E-01  0.00000000E+00
                       0.00000000E+00  3.75000000E-01  0.00000000E+00
                       1.25000000E-01  3.75000000E-01  0.00000000E+00
                       2.50000000E-01  3.75000000E-01  0.00000000E+00
                       3.75000000E-01  3.75000000E-01  0.00000000E+00
                       5.00000000E-01  3.75000000E-01  0.00000000E+00
                      -3.75000000E-01  3.75000000E-01  0.00000000E+00
                      -2.50000000E-01  3.75000000E-01  0.00000000E+00
                      -1.25000000E-01  3.75000000E-01  0.00000000E+00
                       0.00000000E+00  5.00000000E-01  0.00000000E+00
                       1.25000000E-01  5.00000000E-01  0.00000000E+00
                       2.50000000E-01  5.00000000E-01  0.00000000E+00
                       3.75000000E-01  5.00000000E-01  0.00000000E+00
                       5.00000000E-01  5.00000000E-01  0.00000000E+00
                      -3.75000000E-01  5.00000000E-01  0.00000000E+00
                      -2.50000000E-01  5.00000000E-01  0.00000000E+00
                      -1.25000000E-01  5.00000000E-01  0.00000000E+00
                       0.00000000E+00 -3.75000000E-01  0.00000000E+00
                       1.25000000E-01 -3.75000000E-01  0.00000000E+00
                       2.50000000E-01 -3.75000000E-01  0.00000000E+00
                       3.75000000E-01 -3.75000000E-01  0.00000000E+00
                       5.00000000E-01 -3.75000000E-01  0.00000000E+00
                      -3.75000000E-01 -3.75000000E-01  0.00000000E+00
                      -2.50000000E-01 -3.75000000E-01  0.00000000E+00
                      -1.25000000E-01 -3.75000000E-01  0.00000000E+00
                       0.00000000E+00 -2.50000000E-01  0.00000000E+00
                       1.25000000E-01 -2.50000000E-01  0.00000000E+00
                       outvar_i_n : Printing only first  50 k-points.
           kptopt           3
         kptrlatt        8    0    0      0    8    0      0    0    8
          kptrlen      3.81894230E+01
P           mkmem         128
P          mkqmem         128
P          mk1mem         128
            natom           2
            nband           8
           ndtset           3
            ngfft          30      30      30
             nkpt         512
             nqpt           1
            nstep         100
             nsym          48
           ntypat           1
              occ      2.000000  2.000000  2.000000  2.000000  0.000000  0.000000
                       0.000000  0.000000
        optdriver           1
           prteig           0
           prtpot           1
            prtwf           0
              qpt1     0.00000000E+00  0.00000000E+00  0.00000000E+00
              qpt2     5.00000000E-01  0.00000000E+00  0.00000000E+00
              qpt3     5.00000000E-01  5.00000000E-01  0.00000000E+00
           rfphon           1
            rprim      0.0000000000E+00  5.0000000000E-01  5.0000000000E-01
                       5.0000000000E-01  0.0000000000E+00  5.0000000000E-01
                       5.0000000000E-01  5.0000000000E-01  0.0000000000E+00
          spgroup         227
           strten1     0.0000000000E+00  0.0000000000E+00  0.0000000000E+00
                       0.0000000000E+00  0.0000000000E+00  0.0000000000E+00
           strten2     0.0000000000E+00  0.0000000000E+00  0.0000000000E+00
                       0.0000000000E+00  0.0000000000E+00  0.0000000000E+00
           strten3     0.0000000000E+00  0.0000000000E+00  0.0000000000E+00
                       0.0000000000E+00  0.0000000000E+00  0.0000000000E+00
           symrel      1  0  0   0  1  0   0  0  1      -1  0  0   0 -1  0   0  0 -1
                       0 -1  1   0 -1  0   1 -1  0       0  1 -1   0  1  0  -1  1  0
                      -1  0  0  -1  0  1  -1  1  0       1  0  0   1  0 -1   1 -1  0
                       0  1 -1   1  0 -1   0  0 -1       0 -1  1  -1  0  1   0  0  1
                      -1  0  0  -1  1  0  -1  0  1       1  0  0   1 -1  0   1  0 -1
                       0 -1  1   1 -1  0   0 -1  0       0  1 -1  -1  1  0   0  1  0
                       1  0  0   0  0  1   0  1  0      -1  0  0   0  0 -1   0 -1  0
                       0  1 -1   0  0 -1   1  0 -1       0 -1  1   0  0  1  -1  0  1
                      -1  0  1  -1  1  0  -1  0  0       1  0 -1   1 -1  0   1  0  0
                       0 -1  0   1 -1  0   0 -1  1       0  1  0  -1  1  0   0  1 -1
                       1  0 -1   0  0 -1   0  1 -1      -1  0  1   0  0  1   0 -1  1
                       0  1  0   0  0  1   1  0  0       0 -1  0   0  0 -1  -1  0  0
                       1  0 -1   0  1 -1   0  0 -1      -1  0  1   0 -1  1   0  0  1
                       0 -1  0   0 -1  1   1 -1  0       0  1  0   0  1 -1  -1  1  0
                      -1  0  1  -1  0  0  -1  1  0       1  0 -1   1  0  0   1 -1  0
                       0  1  0   1  0  0   0  0  1       0 -1  0  -1  0  0   0  0 -1
                       0  0 -1   0  1 -1   1  0 -1       0  0  1   0 -1  1  -1  0  1
                       1 -1  0   0 -1  1   0 -1  0      -1  1  0   0  1 -1   0  1  0
                       0  0  1   1  0  0   0  1  0       0  0 -1  -1  0  0   0 -1  0
                      -1  1  0  -1  0  0  -1  0  1       1 -1  0   1  0  0   1  0 -1
                       0  0  1   0  1  0   1  0  0       0  0 -1   0 -1  0  -1  0  0
                       1 -1  0   0 -1  0   0 -1  1      -1  1  0   0  1  0   0  1 -1
                       0  0 -1   1  0 -1   0  1 -1       0  0  1  -1  0  1   0 -1  1
                      -1  1  0  -1  0  1  -1  0  0       1 -1  0   1  0 -1   1  0  0
            tnons      0.0000000  0.0000000  0.0000000     0.2500000  0.2500000  0.2500000
                       0.0000000  0.0000000  0.0000000     0.2500000  0.2500000  0.2500000
                       0.0000000  0.0000000  0.0000000     0.2500000  0.2500000  0.2500000
                       0.0000000  0.0000000  0.0000000     0.2500000  0.2500000  0.2500000
                       0.0000000  0.0000000  0.0000000     0.2500000  0.2500000  0.2500000
                       0.0000000  0.0000000  0.0000000     0.2500000  0.2500000  0.2500000
                       0.0000000  0.0000000  0.0000000     0.2500000  0.2500000  0.2500000
                       0.0000000  0.0000000  0.0000000     0.2500000  0.2500000  0.2500000
                       0.0000000  0.0000000  0.0000000     0.2500000  0.2500000  0.2500000
                       0.0000000  0.0000000  0.0000000     0.2500000  0.2500000  0.2500000
                       0.0000000  0.0000000  0.0000000     0.2500000  0.2500000  0.2500000
                       0.0000000  0.0000000  0.0000000     0.2500000  0.2500000  0.2500000
                       0.0000000  0.0000000  0.0000000     0.2500000  0.2500000  0.2500000
                       0.0000000  0.0000000  0.0000000     0.2500000  0.2500000  0.2500000
                       0.0000000  0.0000000  0.0000000     0.2500000  0.2500000  0.2500000
                       0.0000000  0.0000000  0.0000000     0.2500000  0.2500000  0.2500000
                       0.0000000  0.0000000  0.0000000     0.2500000  0.2500000  0.2500000
                       0.0000000  0.0000000  0.0000000     0.2500000  0.2500000  0.2500000
                       0.0000000  0.0000000  0.0000000     0.2500000  0.2500000  0.2500000
                       0.0000000  0.0000000  0.0000000     0.2500000  0.2500000  0.2500000
                       0.0000000  0.0000000  0.0000000     0.2500000  0.2500000  0.2500000
                       0.0000000  0.0000000  0.0000000     0.2500000  0.2500000  0.2500000
                       0.0000000  0.0000000  0.0000000     0.2500000  0.2500000  0.2500000
                       0.0000000  0.0000000  0.0000000     0.2500000  0.2500000  0.2500000
           tolvrs      1.00000000E-18
            typat      1  1
              wtk        0.00195    0.00195    0.00195    0.00195    0.00195    0.00195
                         0.00195    0.00195    0.00195    0.00195    0.00195    0.00195
                         0.00195    0.00195    0.00195    0.00195    0.00195    0.00195
                         0.00195    0.00195    0.00195    0.00195    0.00195    0.00195
                         0.00195    0.00195    0.00195    0.00195    0.00195    0.00195
                         0.00195    0.00195    0.00195    0.00195    0.00195    0.00195
                         0.00195    0.00195    0.00195    0.00195    0.00195    0.00195
                         0.00195    0.00195    0.00195    0.00195    0.00195    0.00195
                         0.00195    0.00195
                       outvars : Printing only first  50 k-points.
           xangst      0.0000000000E+00  0.0000000000E+00  0.0000000000E+00
                       8.9311883380E-01  8.9311883380E-01  8.9311883380E-01
            xcart      0.0000000000E+00  0.0000000000E+00  0.0000000000E+00
                       1.6877500000E+00  1.6877500000E+00  1.6877500000E+00
             xred      0.0000000000E+00  0.0000000000E+00  0.0000000000E+00
                       2.5000000000E-01  2.5000000000E-01  2.5000000000E-01
            znucl        6.00000

 symlatt: the Bravais lattice is cF (face-centered cubic)
 symspgr: spgroup= 227  Fd -3 m   (=Oh^7)
 symspgr: optical characteristics = isotropic
 DATASET    1 : space group Fd -3 m (#227); Bravais cF (face-center cubic)

[...]

 symlatt: the Bravais lattice is cF (face-centered cubic)
 symspgr: spgroup= 227  Fd -3 m   (=Oh^7)
 symspgr: optical characteristics = isotropic
 DATASET    3 : space group Fd -3 m (#227); Bravais cF (face-center cubic)

 Calculation completed.
.Delivered   0 WARNINGs and   0 COMMENTs to log file.

--- !FinalSummary
program: abinit
version: 10.5.1.4
start_datetime: Wed Jun 25 17:36:13 2025
end_datetime: Wed Jun 25 17:38:27 2025
overall_cpu_time:         516.2
overall_wall_time:         537.8
exit_requested_by_user: no
timelimit: 0
pseudos:
    C   : 8af239e6261c16367070328997070877
usepaw: 0
mpi_procs: 4
omp_threads: 1
num_warnings: 0
num_comments: 0
...

--- !PstatData
iteration_state: {dtset: 3, }
pid: 16961
file: abinit.F90
line: 624
vmrss_mb:   9.10898438E+01
min_mpicomm_vmrss_mb:   6.03320312E+01
max_mpicomm_vmrss_mb:   9.10898438E+01
vmpeak_mb:   0.00000000E+00
vmstk_mb:   0.00000000E+00
...