.Version 10.3.4.3 of ABINIT, released Nov 2024.

 ABINIT is a project of the Universite Catholique de Louvain,
 Corning Inc. and other collaborators, see ~abinit/doc/developers/contributors.txt .
 acknowledgments of the ABINIT effort.

.Starting date : Thu 23 Jan 2025.
- ( at 10h42 )

 === Build Information ===
  Version       : 10.3.4.3
  Build target  : aarch64_darwin23.6.0_gnu14.2
  Build date    : 20250121

 === Optimizations ===
  Debug level        : basic
  Optimization level : standard
  Architecture       : _

 === Multicore ===
  Parallel build : /Users/giantomassi/local/
  Parallel I/O   :
  openMP support :
  GPU support    :

 === Connectors / Fallbacks ===
  LINALG flavor  : netlib+openblas
  FFT flavor     : fftw3
  HDF5           : yes
  NetCDF         : yes
  NetCDF Fortran : yes
  Wannier90      : yes

 === Experimental features ===
  Exports             : @enable_exports@
  GW double-precision : yes

 Default optimizations:
   -O2 -march=native

 Optimizations for 43_ptgroups:
   -O0

 CPP options activated during the build:

                   CC_LLVM                  CXX_LLVM                    FC_GNU

 HAVE_FC_ALLOCATABLE_DT...             HAVE_FC_ASYNC         HAVE_FC_BACKTRACE

  HAVE_FC_COMMAND_ARGUMENT      HAVE_FC_COMMAND_LINE        HAVE_FC_CONTIGUOUS

           HAVE_FC_CPUTIME              HAVE_FC_EXIT             HAVE_FC_FLUSH

             HAVE_FC_GAMMA            HAVE_FC_GETENV   HAVE_FC_IEEE_ARITHMETIC

   HAVE_FC_IEEE_EXCEPTIONS          HAVE_FC_INT_QUAD             HAVE_FC_IOMSG

     HAVE_FC_ISO_C_BINDING  HAVE_FC_ISO_FORTRAN_2008        HAVE_FC_LONG_LINES

        HAVE_FC_MOVE_ALLOC  HAVE_FC_ON_THE_FLY_SHAPE           HAVE_FC_PRIVATE

         HAVE_FC_PROTECTED           HAVE_FC_SHIFTLR         HAVE_FC_STREAM_IO

            HAVE_FC_SYSTEM                HAVE_FFTW3          HAVE_FORTRAN2003

               HAVE_GW_DPC                 HAVE_HDF5             HAVE_HDF5_MPI

         HAVE_LINALG_AXPBY         HAVE_LINALG_GEMMT HAVE_LINALG_OPENBLAS_T...

                 HAVE_MPI2         HAVE_MPI2_INPLACE       HAVE_MPI_IALLGATHER

       HAVE_MPI_IALLREDUCE        HAVE_MPI_IALLTOALL       HAVE_MPI_IALLTOALLV

           HAVE_MPI_IBCAST         HAVE_MPI_IGATHERV        HAVE_MPI_INTEGER16

               HAVE_MPI_IO HAVE_MPI_TYPE_CREATE_S...               HAVE_NETCDF

       HAVE_NETCDF_FORTRAN   HAVE_NETCDF_FORTRAN_MPI           HAVE_NETCDF_MPI

         HAVE_TIMER_ABINIT            HAVE_WANNIER90

- input  file    -> groundstate.abi
- output file    -> groundstate.abo
- root for input  files -> groundstatei
- root for output files -> groundstateo

 abinit : after writing the name of files
-instrng: 59 lines of input have been read from file groundstate.abi

 For atom type 1, psp file is C.psp8
  read the values zionpsp=  4.0 , pspcod=   8 , lmax=   1

 inpspheads: deduce mpsang = 2, n1xccc = 2501.

 invars1m : enter jdtset= 0
  xred   is defined in input file
 ingeo: takes atomic coordinates from input array xred

--- !COMMENT
src_file: m_symfind.F90
src_line: 830
message: |
    The tolerance on symmetries =   1.000E-05 is bigger than 1.0e-8.
    In order to avoid spurious effects, the atomic coordinates have been
    symmetrized before storing them in the dataset internal variable.
    So, do not be surprised by the fact that your input variables (xcart, xred, ...)
    do not correspond exactly to the ones echoed by ABINIT, the latter being used to do the calculations.
    This is not a problem per se.
    Still, in order to avoid this symmetrization (e.g. for specific debugging/development), decrease tolsym to 1.0e-8 or lower,
    or (much preferred) use input primitive vectors that are accurate to better than 1.0e-8.
    This message will only be printed once, even if there are other datasets where tolsym is bigger than 1.0e-8.
...

 symlatt: the Bravais lattice is cF (face-centered cubic)
 symspgr: spgroup= 227  Fd -3 m   (=Oh^7)
 symspgr: optical characteristics = isotropic

--- !WARNING
src_file: m_mpinfo.F90
src_line: 2351
message: |
    nkpt*nsppol (29) is not a multiple of nproc_spkpt (4)
    The k-point parallelisation is INEFFICIENT.
    Ignore this warning if this is not a GS run.
...

 For input ecut=  4.500000E+01 best grid ngfft=      30      30      30
       max ecut=  4.883263E+01

 ==== FFT mesh ====
  FFT mesh divisions ........................    30   30   30
  Augmented FFT divisions ...................    31   31   30
  FFT algorithm .............................   312
  FFT cache size ............................    16
 getmpw: optimal value of mpw= 1124
 Symmetries : space group Fd -3 m (#227); Bravais cF (face-center cubic)

 getdim_nloc: deduce lmnmax  =   8, lnmax  =   4,
                      lmnmaxso=   8, lnmaxso=   4.
     intxc =       0    ionmov =       0      iscf =       7    lmnmax =       4
     lnmax =       4     mgfft =      30  mpssoang =       2    mqgrid =    3001
     natom =       2  nloc_mem =       1    nspden =       1   nspinor =       1
    nsppol =       1      nsym =      48    n1xccc =    2501    ntypat =       1
    occopt =       1   xclevel =       2
-    mband =           8        mffmem =           1         mkmem =           8
       mpw =        1124          nfft =       27000          nkpt =          29
  Rough estimation (10% accuracy) of disk space for files :

 The job will continue.
------------- Echo of variables that govern the present computation ------------
-
- outvars: echo of selected default values
-   iomode0 =  0 , fftalg0 =312 , wfoptalg0 =  0
-
- outvars: echo of global parameters not present in the input file
-  max_nthreads =    0
-
 -outvars: echo values of preprocessed input variables --------

 These variables are accessible in NetCDF format (groundstateo_OUT.nc)

-          iomode           3
            acell      6.7510000000E+00  6.7510000000E+00  6.7510000000E+00 Bohr
              amu      1.20110000E+01
           diemac      1.20000000E+01
             ecut      4.50000000E+01 Hartree
-          fftalg         312
           istwfk        2    0    0    0    3    0    0    0    0    0
                         0    0    0    0    0    0    0    0    0    0
                         7    0    0    0    0    0    0    0    0
              ixc          11
              kpt      0.00000000E+00  0.00000000E+00  0.00000000E+00
                       1.25000000E-01  0.00000000E+00  0.00000000E+00
                       2.50000000E-01  0.00000000E+00  0.00000000E+00
                       3.75000000E-01  0.00000000E+00  0.00000000E+00
                       5.00000000E-01  0.00000000E+00  0.00000000E+00
                       1.25000000E-01  1.25000000E-01  0.00000000E+00
                       2.50000000E-01  1.25000000E-01  0.00000000E+00
                       3.75000000E-01  1.25000000E-01  0.00000000E+00
                       5.00000000E-01  1.25000000E-01  0.00000000E+00
                      -3.75000000E-01  1.25000000E-01  0.00000000E+00
                      -2.50000000E-01  1.25000000E-01  0.00000000E+00
                      -1.25000000E-01  1.25000000E-01  0.00000000E+00
                       2.50000000E-01  2.50000000E-01  0.00000000E+00
                       3.75000000E-01  2.50000000E-01  0.00000000E+00
                       5.00000000E-01  2.50000000E-01  0.00000000E+00
                      -3.75000000E-01  2.50000000E-01  0.00000000E+00
                      -2.50000000E-01  2.50000000E-01  0.00000000E+00
                       3.75000000E-01  3.75000000E-01  0.00000000E+00
                       5.00000000E-01  3.75000000E-01  0.00000000E+00
                      -3.75000000E-01  3.75000000E-01  0.00000000E+00
                       5.00000000E-01  5.00000000E-01  0.00000000E+00
                       3.75000000E-01  2.50000000E-01  1.25000000E-01
                       5.00000000E-01  2.50000000E-01  1.25000000E-01
                      -3.75000000E-01  2.50000000E-01  1.25000000E-01
                       5.00000000E-01  3.75000000E-01  1.25000000E-01
                      -3.75000000E-01  3.75000000E-01  1.25000000E-01
                      -2.50000000E-01  3.75000000E-01  1.25000000E-01
                      -3.75000000E-01  5.00000000E-01  1.25000000E-01
                      -2.50000000E-01  5.00000000E-01  2.50000000E-01
         kptrlatt        8    0    0      0    8    0      0    0    8
          kptrlen      3.81894230E+01
P           mkmem           8
            natom           2
            nband           8
            ngfft          30      30      30
             nkpt          29
            nstep         100
             nsym          48
           ntypat           1
              occ      2.000000  2.000000  2.000000  2.000000  0.000000  0.000000
                       0.000000  0.000000
           prteig           0
           prtpot           1
            rprim      0.0000000000E+00  5.0000000000E-01  5.0000000000E-01
                       5.0000000000E-01  0.0000000000E+00  5.0000000000E-01
                       5.0000000000E-01  5.0000000000E-01  0.0000000000E+00
          spgroup         227
           symrel      1  0  0   0  1  0   0  0  1      -1  0  0   0 -1  0   0  0 -1
                       0 -1  1   0 -1  0   1 -1  0       0  1 -1   0  1  0  -1  1  0
                      -1  0  0  -1  0  1  -1  1  0       1  0  0   1  0 -1   1 -1  0
                       0  1 -1   1  0 -1   0  0 -1       0 -1  1  -1  0  1   0  0  1
                      -1  0  0  -1  1  0  -1  0  1       1  0  0   1 -1  0   1  0 -1
                       0 -1  1   1 -1  0   0 -1  0       0  1 -1  -1  1  0   0  1  0
                       1  0  0   0  0  1   0  1  0      -1  0  0   0  0 -1   0 -1  0
                       0  1 -1   0  0 -1   1  0 -1       0 -1  1   0  0  1  -1  0  1
                      -1  0  1  -1  1  0  -1  0  0       1  0 -1   1 -1  0   1  0  0
                       0 -1  0   1 -1  0   0 -1  1       0  1  0  -1  1  0   0  1 -1
                       1  0 -1   0  0 -1   0  1 -1      -1  0  1   0  0  1   0 -1  1
                       0  1  0   0  0  1   1  0  0       0 -1  0   0  0 -1  -1  0  0
                       1  0 -1   0  1 -1   0  0 -1      -1  0  1   0 -1  1   0  0  1
                       0 -1  0   0 -1  1   1 -1  0       0  1  0   0  1 -1  -1  1  0
                      -1  0  1  -1  0  0  -1  1  0       1  0 -1   1  0  0   1 -1  0
                       0  1  0   1  0  0   0  0  1       0 -1  0  -1  0  0   0  0 -1
                       0  0 -1   0  1 -1   1  0 -1       0  0  1   0 -1  1  -1  0  1
                       1 -1  0   0 -1  1   0 -1  0      -1  1  0   0  1 -1   0  1  0
                       0  0  1   1  0  0   0  1  0       0  0 -1  -1  0  0   0 -1  0
                      -1  1  0  -1  0  0  -1  0  1       1 -1  0   1  0  0   1  0 -1
                       0  0  1   0  1  0   1  0  0       0  0 -1   0 -1  0  -1  0  0
                       1 -1  0   0 -1  0   0 -1  1      -1  1  0   0  1  0   0  1 -1
                       0  0 -1   1  0 -1   0  1 -1       0  0  1  -1  0  1   0 -1  1
                      -1  1  0  -1  0  1  -1  0  0       1 -1  0   1  0 -1   1  0  0
[...]
  7.26E-24 1.82E-24 7.45E-24 1.32E-23 1.33E-23 1.55E-23 1.11E-20 1.76E-17
  -0.3750  0.3750  0.1250    1  3.26508E-14 kpt; spin; max resid(k); each band:
  5.61E-24 6.24E-24 1.16E-23 1.06E-23 1.85E-23 1.71E-20 2.02E-19 3.27E-14
  -0.2500  0.3750  0.1250    1  5.91854E-13 kpt; spin; max resid(k); each band:
  3.74E-24 6.53E-24 6.89E-24 1.05E-23 2.04E-23 1.31E-19 1.22E-16 5.92E-13
  -0.3750  0.5000  0.1250    1  1.10661E-14 kpt; spin; max resid(k); each band:
  6.36E-24 6.36E-24 7.42E-24 7.42E-24 1.54E-23 1.51E-23 1.11E-14 2.50E-16
  -0.2500  0.5000  0.2500    1  7.03033E-20 kpt; spin; max resid(k); each band:
  2.50E-24 2.53E-24 1.71E-23 1.71E-23 5.62E-22 1.83E-21 6.76E-20 7.03E-20
 In cg_ncwrite with path: groundstateo_WFK.nc
 same layout --> writing WFK file: groundstateo_WFK.nc, with iomode: IO_MODE_ETSF, single writer: F
Using collective IO for the CGs
 Fermi (or HOMO) energy (hartree) =   0.37562   Average Vxc (hartree)=  -0.49276
 Eigenvalues (hartree) for nkpt=  29  k points:
 kpt#   1, nband=  8, wtk=  0.00195, kpt=  0.0000  0.0000  0.0000 (reduced coord)
  -0.41171    0.37562    0.37562    0.37562    0.58180    0.58180    0.58180    0.86143
 kpt#   2, nband=  8, wtk=  0.01563, kpt=  0.1250  0.0000  0.0000 (reduced coord)
  -0.39589    0.28716    0.35171    0.35171    0.61320    0.61320    0.62869    0.87520
 kpt#   3, nband=  8, wtk=  0.01563, kpt=  0.2500  0.0000  0.0000 (reduced coord)
  -0.34892    0.13401    0.31154    0.31154    0.66247    0.66247    0.67482    0.91055
 kpt#   4, nband=  8, wtk=  0.01563, kpt=  0.3750  0.0000  0.0000 (reduced coord)
  -0.27330   -0.01563    0.28276    0.28276    0.68482    0.68482    0.69469    0.94219
 kpt#   5, nband=  8, wtk=  0.00781, kpt=  0.5000  0.0000  0.0000 (reduced coord)
  -0.20045   -0.11439    0.27273    0.27273    0.68780    0.68780    0.70009    0.95131
 kpt#   6, nband=  8, wtk=  0.01172, kpt=  0.1250  0.1250  0.0000 (reduced coord)
  -0.39062    0.31246    0.31246    0.32688    0.56687    0.66279    0.66279    0.86201
 kpt#   7, nband=  8, wtk=  0.04688, kpt=  0.2500  0.1250  0.0000 (reduced coord)
  -0.35405    0.18908    0.27024    0.30104    0.59102    0.71871    0.72205    0.84742
 kpt#   8, nband=  8, wtk=  0.04688, kpt=  0.3750  0.1250  0.0000 (reduced coord)
  -0.28772    0.04146    0.24640    0.25824    0.63414    0.74527    0.74689    0.87072
 kpt#   9, nband=  8, wtk=  0.04688, kpt=  0.5000  0.1250  0.0000 (reduced coord)
  -0.20243   -0.08447    0.22332    0.24627    0.65682    0.73719    0.75276    0.93233
 kpt#  10, nband=  8, wtk=  0.04688, kpt= -0.3750  0.1250  0.0000 (reduced coord)
  -0.23056   -0.04774    0.20757    0.26881    0.67820    0.71332    0.74937    0.93940
 kpt#  11, nband=  8, wtk=  0.04688, kpt= -0.2500  0.1250  0.0000 (reduced coord)
  -0.31297    0.09096    0.21561    0.30804    0.67466    0.69368    0.72875    0.89398
 kpt#  12, nband=  8, wtk=  0.02344, kpt= -0.1250  0.1250  0.0000 (reduced coord)
  -0.36969    0.22949    0.25659    0.34775    0.62425    0.67214    0.67615    0.87954
 kpt#  13, nband=  8, wtk=  0.01172, kpt=  0.2500  0.2500  0.0000 (reduced coord)
  -0.32807    0.20969    0.22452    0.22452    0.54014    0.75342    0.80098    0.80098
 kpt#  14, nband=  8, wtk=  0.04688, kpt=  0.3750  0.2500  0.0000 (reduced coord)
  -0.27205    0.09977    0.18414    0.19769    0.56706    0.72033    0.84858    0.84926
 kpt#  15, nband=  8, wtk=  0.04688, kpt=  0.5000  0.2500  0.0000 (reduced coord)
  -0.19127   -0.01993    0.12853    0.19673    0.60065    0.79629    0.84604    0.86413
 kpt#  16, nband=  8, wtk=  0.04688, kpt= -0.3750  0.2500  0.0000 (reduced coord)
  -0.16580   -0.04917    0.09181    0.22140    0.62885    0.80816    0.86152    0.91788
 kpt#  17, nband=  8, wtk=  0.02344, kpt= -0.2500  0.2500  0.0000 (reduced coord)
  -0.24816    0.05640    0.09696    0.26506    0.66816    0.74348    0.82927    0.88489
 kpt#  18, nband=  8, wtk=  0.01172, kpt=  0.3750  0.3750  0.0000 (reduced coord)
  -0.22666    0.06049    0.16512    0.16512    0.52916    0.62507    0.92973    0.92973
 kpt#  19, nband=  8, wtk=  0.04688, kpt=  0.5000  0.3750  0.0000 (reduced coord)
  -0.15482   -0.01600    0.10658    0.15840    0.56028    0.63478    0.94903    0.95832
 kpt#  20, nband=  8, wtk=  0.02344, kpt= -0.3750  0.3750  0.0000 (reduced coord)
  -0.10068   -0.05483    0.03455    0.17885    0.58612    0.77108    0.90234    0.94746
 kpt#  21, nband=  8, wtk=  0.00586, kpt=  0.5000  0.5000  0.0000 (reduced coord)
  -0.09265   -0.09265    0.14458    0.14458    0.55255    0.55255    0.99075    0.99075
 kpt#  22, nband=  8, wtk=  0.04688, kpt=  0.3750  0.2500  0.1250 (reduced coord)
  -0.30771    0.13673    0.17408    0.26967    0.61801    0.74490    0.80063    0.80760
 kpt#  23, nband=  8, wtk=  0.09375, kpt=  0.5000  0.2500  0.1250 (reduced coord)
  -0.23357    0.01456    0.14541    0.22597    0.66945    0.73042    0.83003    0.86577
 kpt#  24, nband=  8, wtk=  0.04688, kpt= -0.3750  0.2500  0.1250 (reduced coord)
  -0.16342   -0.07748    0.14406    0.20378    0.68215    0.72317    0.85386    0.92047
 kpt#  25, nband=  8, wtk=  0.04688, kpt=  0.5000  0.3750  0.1250 (reduced coord)
  -0.20803    0.04477    0.11936    0.15796    0.60923    0.69329    0.85234    0.92961
 kpt#  26, nband=  8, wtk=  0.09375, kpt= -0.3750  0.3750  0.1250 (reduced coord)
  -0.12783   -0.03410    0.06746    0.14302    0.65380    0.77716    0.83532    0.92242
 kpt#  27, nband=  8, wtk=  0.04688, kpt= -0.2500  0.3750  0.1250 (reduced coord)
  -0.15678   -0.00625    0.05084    0.17502    0.68457    0.77167    0.85483    0.90796
 kpt#  28, nband=  8, wtk=  0.02344, kpt= -0.3750  0.5000  0.1250 (reduced coord)
  -0.08034   -0.08034    0.10761    0.10761    0.62975    0.62975    0.94565    0.94565
 kpt#  29, nband=  8, wtk=  0.01172, kpt= -0.2500  0.5000  0.2500 (reduced coord)
  -0.06388   -0.06388    0.07091    0.07091    0.76734    0.76734    0.82722    0.82722
 Total charge density [el/Bohr^3]
)     Maximum=    2.9519E-01  at reduced coord.    0.2000    0.2000    0.4333
)Next maximum=    2.9519E-01  at reduced coord.    0.1667    0.2000    0.4333
)     Minimum=    1.3092E-02  at reduced coord.    0.5000    0.5000    0.5000
)Next minimum=    1.3251E-02  at reduced coord.    0.7667    0.7333    0.7333
   Integrated=    8.0000E+00
 input_len, strlen:        1870     2000000

 Cartesian components of stress tensor (hartree/bohr^3)
  sigma(1 1)= -1.37227474E-06  sigma(3 2)=  0.00000000E+00
  sigma(2 2)= -1.37227474E-06  sigma(3 1)=  0.00000000E+00
  sigma(3 3)= -1.37227474E-06  sigma(2 1)=  0.00000000E+00

-Cartesian components of stress tensor (GPa)         [Pressure=  4.0374E-02 GPa]
- sigma(1 1)= -4.03737101E-02  sigma(3 2)=  0.00000000E+00
- sigma(2 2)= -4.03737101E-02  sigma(3 1)=  0.00000000E+00
- sigma(3 3)= -4.03737101E-02  sigma(2 1)=  0.00000000E+00

== END DATASET(S) ==============================================================

 -outvars: echo values of variables after computation  --------

 These variables are accessible in NetCDF format (groundstateo_OUT.nc)

-          iomode           3
            acell      6.7510000000E+00  6.7510000000E+00  6.7510000000E+00 Bohr
              amu      1.20110000E+01
           diemac      1.20000000E+01
             ecut      4.50000000E+01 Hartree
           etotal     -1.2037644609E+01
            fcart      5.1414427240E-30 -2.0254168307E-30  4.6740388400E-31
                      -5.1414427240E-30  2.0254168307E-30 -4.6740388400E-31
-          fftalg         312
           istwfk        2    0    0    0    3    0    0    0    0    0
                         0    0    0    0    0    0    0    0    0    0
                         7    0    0    0    0    0    0    0    0
              ixc          11
              kpt      0.00000000E+00  0.00000000E+00  0.00000000E+00
                       1.25000000E-01  0.00000000E+00  0.00000000E+00
                       2.50000000E-01  0.00000000E+00  0.00000000E+00
                       3.75000000E-01  0.00000000E+00  0.00000000E+00
                       5.00000000E-01  0.00000000E+00  0.00000000E+00
                       1.25000000E-01  1.25000000E-01  0.00000000E+00
                       2.50000000E-01  1.25000000E-01  0.00000000E+00
                       3.75000000E-01  1.25000000E-01  0.00000000E+00
                       5.00000000E-01  1.25000000E-01  0.00000000E+00
                      -3.75000000E-01  1.25000000E-01  0.00000000E+00
                      -2.50000000E-01  1.25000000E-01  0.00000000E+00
                      -1.25000000E-01  1.25000000E-01  0.00000000E+00
                       2.50000000E-01  2.50000000E-01  0.00000000E+00
                       3.75000000E-01  2.50000000E-01  0.00000000E+00
                       5.00000000E-01  2.50000000E-01  0.00000000E+00
                      -3.75000000E-01  2.50000000E-01  0.00000000E+00
                      -2.50000000E-01  2.50000000E-01  0.00000000E+00
                       3.75000000E-01  3.75000000E-01  0.00000000E+00
                       5.00000000E-01  3.75000000E-01  0.00000000E+00
                      -3.75000000E-01  3.75000000E-01  0.00000000E+00
                       5.00000000E-01  5.00000000E-01  0.00000000E+00
                       3.75000000E-01  2.50000000E-01  1.25000000E-01
                       5.00000000E-01  2.50000000E-01  1.25000000E-01
                      -3.75000000E-01  2.50000000E-01  1.25000000E-01
                       5.00000000E-01  3.75000000E-01  1.25000000E-01
                      -3.75000000E-01  3.75000000E-01  1.25000000E-01
                      -2.50000000E-01  3.75000000E-01  1.25000000E-01
                      -3.75000000E-01  5.00000000E-01  1.25000000E-01
                      -2.50000000E-01  5.00000000E-01  2.50000000E-01
         kptrlatt        8    0    0      0    8    0      0    0    8
          kptrlen      3.81894230E+01
P           mkmem           8
            natom           2
            nband           8
            ngfft          30      30      30
             nkpt          29
            nstep         100
             nsym          48
           ntypat           1
              occ      2.000000  2.000000  2.000000  2.000000  0.000000  0.000000
                       0.000000  0.000000
           prteig           0
           prtpot           1
            rprim      0.0000000000E+00  5.0000000000E-01  5.0000000000E-01
                       5.0000000000E-01  0.0000000000E+00  5.0000000000E-01
                       5.0000000000E-01  5.0000000000E-01  0.0000000000E+00
          spgroup         227
           strten     -1.3722747446E-06 -1.3722747446E-06 -1.3722747446E-06
                       0.0000000000E+00  0.0000000000E+00  0.0000000000E+00
           symrel      1  0  0   0  1  0   0  0  1      -1  0  0   0 -1  0   0  0 -1
                       0 -1  1   0 -1  0   1 -1  0       0  1 -1   0  1  0  -1  1  0
                      -1  0  0  -1  0  1  -1  1  0       1  0  0   1  0 -1   1 -1  0
                       0  1 -1   1  0 -1   0  0 -1       0 -1  1  -1  0  1   0  0  1
                      -1  0  0  -1  1  0  -1  0  1       1  0  0   1 -1  0   1  0 -1
                       0 -1  1   1 -1  0   0 -1  0       0  1 -1  -1  1  0   0  1  0
                       1  0  0   0  0  1   0  1  0      -1  0  0   0  0 -1   0 -1  0
                       0  1 -1   0  0 -1   1  0 -1       0 -1  1   0  0  1  -1  0  1
                      -1  0  1  -1  1  0  -1  0  0       1  0 -1   1 -1  0   1  0  0
                       0 -1  0   1 -1  0   0 -1  1       0  1  0  -1  1  0   0  1 -1
                       1  0 -1   0  0 -1   0  1 -1      -1  0  1   0  0  1   0 -1  1
                       0  1  0   0  0  1   1  0  0       0 -1  0   0  0 -1  -1  0  0
                       1  0 -1   0  1 -1   0  0 -1      -1  0  1   0 -1  1   0  0  1
                       0 -1  0   0 -1  1   1 -1  0       0  1  0   0  1 -1  -1  1  0
                      -1  0  1  -1  0  0  -1  1  0       1  0 -1   1  0  0   1 -1  0
                       0  1  0   1  0  0   0  0  1       0 -1  0  -1  0  0   0  0 -1
                       0  0 -1   0  1 -1   1  0 -1       0  0  1   0 -1  1  -1  0  1
                       1 -1  0   0 -1  1   0 -1  0      -1  1  0   0  1 -1   0  1  0
                       0  0  1   1  0  0   0  1  0       0  0 -1  -1  0  0   0 -1  0
                      -1  1  0  -1  0  0  -1  0  1       1 -1  0   1  0  0   1  0 -1
                       0  0  1   0  1  0   1  0  0       0  0 -1   0 -1  0  -1  0  0
                       1 -1  0   0 -1  0   0 -1  1      -1  1  0   0  1  0   0  1 -1
                       0  0 -1   1  0 -1   0  1 -1       0  0  1  -1  0  1   0 -1  1
                      -1  1  0  -1  0  1  -1  0  0       1 -1  0   1  0 -1   1  0  0
            tnons      0.0000000  0.0000000  0.0000000     0.2500000  0.2500000  0.2500000
                       0.0000000  0.0000000  0.0000000     0.2500000  0.2500000  0.2500000
                       0.0000000  0.0000000  0.0000000     0.2500000  0.2500000  0.2500000
                       0.0000000  0.0000000  0.0000000     0.2500000  0.2500000  0.2500000
                       0.0000000  0.0000000  0.0000000     0.2500000  0.2500000  0.2500000
                       0.0000000  0.0000000  0.0000000     0.2500000  0.2500000  0.2500000
                       0.0000000  0.0000000  0.0000000     0.2500000  0.2500000  0.2500000
                       0.0000000  0.0000000  0.0000000     0.2500000  0.2500000  0.2500000
                       0.0000000  0.0000000  0.0000000     0.2500000  0.2500000  0.2500000
                       0.0000000  0.0000000  0.0000000     0.2500000  0.2500000  0.2500000
                       0.0000000  0.0000000  0.0000000     0.2500000  0.2500000  0.2500000
                       0.0000000  0.0000000  0.0000000     0.2500000  0.2500000  0.2500000
                       0.0000000  0.0000000  0.0000000     0.2500000  0.2500000  0.2500000
                       0.0000000  0.0000000  0.0000000     0.2500000  0.2500000  0.2500000
                       0.0000000  0.0000000  0.0000000     0.2500000  0.2500000  0.2500000
                       0.0000000  0.0000000  0.0000000     0.2500000  0.2500000  0.2500000
                       0.0000000  0.0000000  0.0000000     0.2500000  0.2500000  0.2500000
                       0.0000000  0.0000000  0.0000000     0.2500000  0.2500000  0.2500000
                       0.0000000  0.0000000  0.0000000     0.2500000  0.2500000  0.2500000
                       0.0000000  0.0000000  0.0000000     0.2500000  0.2500000  0.2500000
                       0.0000000  0.0000000  0.0000000     0.2500000  0.2500000  0.2500000
                       0.0000000  0.0000000  0.0000000     0.2500000  0.2500000  0.2500000
                       0.0000000  0.0000000  0.0000000     0.2500000  0.2500000  0.2500000
                       0.0000000  0.0000000  0.0000000     0.2500000  0.2500000  0.2500000
           tolvrs      1.00000000E-18
            typat      1  1
              wtk        0.00195    0.01563    0.01563    0.01563    0.00781    0.01172
                         0.04688    0.04688    0.04688    0.04688    0.04688    0.02344
                         0.01172    0.04688    0.04688    0.04688    0.02344    0.01172
                         0.04688    0.02344    0.00586    0.04688    0.09375    0.04688
                         0.04688    0.09375    0.04688    0.02344    0.01172
           xangst      0.0000000000E+00  0.0000000000E+00  0.0000000000E+00
                       8.9311883380E-01  8.9311883380E-01  8.9311883380E-01
            xcart      0.0000000000E+00  0.0000000000E+00  0.0000000000E+00
                       1.6877500000E+00  1.6877500000E+00  1.6877500000E+00
             xred      0.0000000000E+00  0.0000000000E+00  0.0000000000E+00
                       2.5000000000E-01  2.5000000000E-01  2.5000000000E-01
            znucl        6.00000

 symlatt: the Bravais lattice is cF (face-centered cubic)
 symspgr: spgroup= 227  Fd -3 m   (=Oh^7)
 symspgr: optical characteristics = isotropic
 Symmetries : space group Fd -3 m (#227); Bravais cF (face-center cubic)

 Calculation completed.
.Delivered   0 WARNINGs and   0 COMMENTs to log file.

--- !FinalSummary
program: abinit
version: 10.3.4.3
start_datetime: Thu Jan 23 10:42:24 2025
end_datetime: Thu Jan 23 10:42:26 2025
overall_cpu_time:           6.4
overall_wall_time:           6.7
exit_requested_by_user: no
timelimit: 0
pseudos:
    C   : 8af239e6261c16367070328997070877
usepaw: 0
mpi_procs: 4
omp_threads: 1
num_warnings: 0
num_comments: 0
...
-   There were 68 allocations and 68 deallocations in C code
-   There were 897095 allocations and 897095 deallocations in Fortran